\ Model sub
\ LP format - for model browsing. Use MPS format to capture full model detail.
Minimize
  27 x[0] + 24 x[1] + 16 x[2] + 21 x[3]
Subject To
 c[0]: - 11 x[0] + 17 x[1] - 11 x[2] + 6 x[3] = 9
 c[1]: 3 x[0] - 4 x[1] - 5 x[2] + 8 x[3] = 9
Bounds
End
